/*********************************************
 * OPL 12.6.0.0 Data
 * Author: Adrian Rodriguez Bazaga, Pau Rodriguez Esmerats
 * Creation Date: 23/11/2017 at 07:17:40
 *********************************************/

nNurses=98;
maxConsec=2;
maxPresence=7;
maxHours=5;
minHours=1;
demand= [20 17 24 27 17 24 27 18 14 8 1 2 1 3 2 2 2 2 1 1 22 46 25 31  ];
